(set-info :smt-lib-version 2.6)
(set-logic UFLIA)
(set-info :source |
Generated by: Geoff Sutcliffe
Generated on: 2026-03-11
Generator: TPTPWorld
Application: Benchmarking automated theorem provers
Time limit: 120.0

These benchmarks are translations from the TPTP Library (Thousands of
Problems for Theorem Provers), see http://www.cs.miami.edu/~tptp/

The TPTP is maintained by Geoff Sutcliffe, and he contributed this
selection of benchmarks to SMT-LIB.  They were exported from the
v9.2.1 realease of TPTP.
|)
(set-info :category "industrial")
(set-info :status unknown)
; SZS status Success
(declare-sort $$unsorted 0)

(declare-sort tptp.heap 0)
(declare-fun tptp.empty () tptp.heap)
(declare-fun tptp.toop (tptp.heap) Int)
(declare-fun tptp.sel (tptp.heap Int) Int)
(declare-fun tptp.length (tptp.heap) Int)
(declare-fun tptp.app (tptp.heap Int) tptp.heap)
(declare-fun tptp.get (tptp.heap) tptp.heap)
(declare-fun tptp.lsls (tptp.heap tptp.heap) Bool)
(assert (forall ((M Int)) (= (tptp.sel tptp.empty M) 0)))
(assert (forall ((H tptp.heap) (M Int) (N Int)) (=> (= M (+ 1 (tptp.length H))) (= (tptp.sel (tptp.app H N) M) N))))
(assert (forall ((N Int) (H tptp.heap) (M Int)) (=> (not (= M (+ 1 (tptp.length H)))) (= (tptp.sel (tptp.app H N) M) (tptp.sel H M)))))
(assert (forall ((N Int) (H tptp.heap)) (= (tptp.get (tptp.app H N)) H)))
(assert (forall ((H tptp.heap) (N Int)) (= (tptp.toop (tptp.app H N)) N)))
(assert (forall ((H tptp.heap) (H0 tptp.heap) (N Int) (N0 Int)) (= (= (tptp.app H N) (tptp.app H0 N0)) (and (= H H0) (= N N0)))))
(assert (forall ((H tptp.heap) (N Int)) (not (= tptp.empty (tptp.app H N)))))
(assert (forall ((H tptp.heap)) (or (= H tptp.empty) (= H (tptp.app (tptp.get H) (tptp.toop H))))))
(assert (= (tptp.length tptp.empty) 0))
(assert (forall ((N Int) (H tptp.heap)) (= (tptp.length (tptp.app H N)) (+ 1 (tptp.length H)))))
(assert (forall ((H tptp.heap)) (not (tptp.lsls H H))))
(assert (forall ((H0 tptp.heap) (H tptp.heap) (H1 tptp.heap)) (=> (and (tptp.lsls H H0) (tptp.lsls H0 H1)) (tptp.lsls H H1))))
(assert (forall ((H tptp.heap)) (not (tptp.lsls H tptp.empty))))
(assert (forall ((N Int) (H0 tptp.heap) (H tptp.heap)) (= (tptp.lsls H0 (tptp.app H N)) (or (= H0 H) (tptp.lsls H0 H)))))
(assert (not (forall ((N Int) (M Int) (H tptp.heap)) (or (= (tptp.sel (tptp.app H N) M) N) (not (= M (+ 1 (tptp.length H))))))))
(check-sat)
(exit)
